weniger-krumme-touren/beispiele/random/30/304.txt.solution
[21, 22, 18, 23, 26, 27, 28, 29, 25, 19, 24, 20, 17, 16, 15, 14, 13, 12, 11, 1, 2, 3, 4, 5, 6, 7, 8, 9, 10, 0]