weniger-krumme-touren/mip/correct cuts/304.log
Starting solution of the Linear programming relaxation problem using Primal Simplex

Coin0506I Presolve 8604 (-8573) rows, 465 (0) columns and 18076 (-17146) elements
Clp1000I sum of infeasibilities 8.80659e-05 - average 1.02355e-08, 330 fixed columns
Coin0506I Presolve 622 (-7982) rows, 135 (-330) columns and 1452 (-16624) elements
Clp0029I End of values pass after 135 iterations
Clp0014I Perturbing problem by 0.001% of 1.0000001 - largest nonzero change 2.8696194e-05 ( 0.0014348097%) - largest zero change 2.8834042e-05
Clp0000I Optimal - objective value 884.12225
Clp0000I Optimal - objective value 884.12225
Coin0511I After Postsolve, objective 884.12225, infeasibilities - dual 0 (0), primal 0 (0)
Clp0000I Optimal - objective value 884.12225
Clp0000I Optimal - objective value 884.12225
Clp0000I Optimal - objective value 884.12225
Coin0511I After Postsolve, objective 884.12225, infeasibilities - dual 0 (0), primal 0 (0)
Clp0032I Optimal objective 884.1222504 - 0 iterations time 0.262, Presolve 0.01, Idiot 0.25

Starting MIP optimization
Modell wird erstellt...
Suche Startlösung...
None
Suche optimale Lösung...
OptimizationStatus.INFEASIBLE
C:\Users\Philip\Documents\programmieren\python\bwinf41-2\weniger-krumme-touren\beispiele\random\30\304.txt
Startlösung ist optimal!
Cbc0045I MIPStart provided solution with cost 940.984
Cbc0012I Integer solution of 940.98415 found by Reduced search after 0 iterations and 0 nodes (0.04 seconds)
Cbc0013I At root node, 0 cuts changed objective from 884.12225 to 884.12225 in 1 passes
Cbc0014I Cut generator 0 (LazyConstraints) - 0 row cuts average 0.0 elements, 0 column cuts (0 active)  in 0.020 seconds - new frequency is 1
Cbc0014I Cut generator 1 (Probing) - 0 row cuts average 0.0 elements, 0 column cuts (0 active)  in 0.000 seconds - new frequency is -100
Cbc0014I Cut generator 2 (Gomory) - 0 row cuts average 0.0 elements, 0 column cuts (0 active)  in 0.000 seconds - new frequency is -100
Cbc0014I Cut generator 3 (Knapsack) - 0 row cuts average 0.0 elements, 0 column cuts (0 active)  in 0.000 seconds - new frequency is -100
Cbc0014I Cut generator 4 (MixedIntegerRounding2) - 0 row cuts average 0.0 elements, 0 column cuts (0 active)  in 0.000 seconds - new frequency is -100
Cbc0014I Cut generator 5 (FlowCover) - 0 row cuts average 0.0 elements, 0 column cuts (0 active)  in 0.000 seconds - new frequency is -100
Cbc0014I Cut generator 6 (TwoMirCuts) - 0 row cuts average 0.0 elements, 0 column cuts (0 active)  in 0.000 seconds - new frequency is -100
Cbc0014I Cut generator 7 (ZeroHalf) - 0 row cuts average 0.0 elements, 0 column cuts (0 active)  in 0.000 seconds - new frequency is -100
Cbc0001I Search completed - best objective 940.9841547067265, took 109 iterations and 2 nodes (0.15 seconds)
Cbc0032I Strong branching done 24 times (292 iterations), fathomed 1 nodes and fixed 0 variables
Cbc0035I Maximum depth 0, 427 variables fixed on reduced cost
Total time (CPU seconds):       0.16   (Wallclock seconds):       0.16

